Problem:    guia4_8
Rows:       4
Columns:    2
Non-zeros:  7
Status:     OPTIMAL
Objective:  z = 96 (MAXimum)

   No.   Row name   St   Activity     Lower bound   Upper bound    Marginal
------ ------------ -- ------------- ------------- ------------- -------------
     1 z            B             96                             
     2 res1         NU            48                          48      0.333333 
     3 res2         NU            60                          60       1.33333 
     4 res3         B             36                          45 

   No. Column name  St   Activity     Lower bound   Upper bound    Marginal
------ ------------ -- ------------- ------------- ------------- -------------
     1 X1           B             12             0               
     2 X2           B              6             0               

Karush-Kuhn-Tucker optimality conditions:

KKT.PE: max.abs.err = 0.00e+00 on row 0
        max.rel.err = 0.00e+00 on row 0
        High quality

KKT.PB: max.abs.err = 0.00e+00 on row 0
        max.rel.err = 0.00e+00 on row 0
        High quality

KKT.DE: max.abs.err = 8.88e-16 on column 1
        max.rel.err = 6.83e-17 on column 1
        High quality

KKT.DB: max.abs.err = 0.00e+00 on row 0
        max.rel.err = 0.00e+00 on row 0
        High quality

End of output
